
Welcome to IBM(R) ILOG(R) CPLEX(R) Interactive Optimizer 22.1.1.0
  with Simplex, Mixed Integer & Barrier Optimizers
5725-A06 5725-A29 5724-Y48 5724-Y49 5724-Y54 5724-Y55 5655-Y21
Copyright IBM Corp. 1988, 2022.  All Rights Reserved.

Type 'help' for a list of available commands.
Type 'help' followed by a command name for more
information on commands.

CPLEX> Selected objective sense:  MINIMIZE
Selected objective  name:  00000000
Selected RHS        name:  RHS1
Selected bound      name:  BOUND
Problem 'ee.mps' read.
Read time = 0.03 sec. (3.14 ticks)
CPLEX> New value for time limit in seconds: 7200
CPLEX> New value for parallel optimization mode: -1
CPLEX> New value for default parallel thread count: 40
CPLEX> New value for mixed integer optimality gap tolerance: 1e-13
CPLEX> Version identifier: 22.1.1.0 | 2022-11-28 | 9160aff4d
CPXPARAM_Threads                                 40
CPXPARAM_Parallel                                -1
CPXPARAM_TimeLimit                               7200
CPXPARAM_MIP_Tolerances_MIPGap                   1e-13
Found incumbent of value 0.000000 after 0.00 sec. (0.31 ticks)
Tried aggregator 2 times.
MIP Presolve eliminated 181 rows and 2745 columns.
MIP Presolve modified 5862 coefficients.
Aggregator did 713 substitutions.
Reduced MIP has 3623 rows, 7739 columns, and 28643 nonzeros.
Reduced MIP has 7739 binaries, 0 generals, 0 SOSs, and 0 indicators.
Presolve time = 0.07 sec. (68.56 ticks)
Probing time = 0.03 sec. (5.29 ticks)
Tried aggregator 1 time.
Detecting symmetries...
Reduced MIP has 3623 rows, 7739 columns, and 28643 nonzeros.
Reduced MIP has 7739 binaries, 0 generals, 0 SOSs, and 0 indicators.
Presolve time = 0.02 sec. (21.83 ticks)
Probing time = 0.02 sec. (5.10 ticks)
Clique table members: 18551.
MIP emphasis: balance optimality and feasibility.
MIP search method: dynamic search.
Parallel mode: opportunistic, using up to 40 threads.
Root relaxation solution time = 0.13 sec. (123.42 ticks)

        Nodes                                         Cuts/
   Node  Left     Objective  IInf  Best Integer    Best Bound    ItCnt     Gap

*     0+    0                            0.0000  -1.31000e+13              --- 
*     0+    0                      -5.50000e+12  -1.31000e+13           138.18%
      0     0  -1.30900e+13    24  -5.50000e+12  -1.30900e+13     2594  138.00%
*     0+    0                      -1.30900e+13  -1.30900e+13             0.00%
      0     0  -1.30900e+13    88  -1.30900e+13      Cuts: 45     2818    0.00%
*     0+    0                      -1.30900e+13  -1.30900e+13             0.00%
*     0+    0                      -1.30900e+13  -1.30900e+13             0.00%
      0     0  -1.30900e+13   153  -1.30900e+13      Cuts: 45     3087    0.00%
*     0+    0                      -1.30900e+13  -1.30900e+13             0.00%
*     0+    0                      -1.30900e+13  -1.30900e+13             0.00%

Repeating presolve.
Tried aggregator 2 times.
MIP Presolve eliminated 2055 rows and 4550 columns.
MIP Presolve modified 7 coefficients.
Aggregator did 585 substitutions.
Reduced MIP has 983 rows, 2540 columns, and 8780 nonzeros.
Reduced MIP has 2540 binaries, 0 generals, 0 SOSs, and 0 indicators.
Presolve time = 0.04 sec. (43.14 ticks)
Probing time = 0.00 sec. (3.71 ticks)
Tried aggregator 1 time.
Detecting symmetries...
Reduced MIP has 983 rows, 2540 columns, and 8780 nonzeros.
Reduced MIP has 2540 binaries, 0 generals, 0 SOSs, and 0 indicators.
Presolve time = 0.01 sec. (6.07 ticks)
Represolve time = 0.07 sec. (65.28 ticks)
Probing time = 0.00 sec. (3.68 ticks)
Clique table members: 5995.
MIP emphasis: balance optimality and feasibility.
MIP search method: dynamic search.
Parallel mode: opportunistic, using up to 40 threads.
Root relaxation solution time = 0.06 sec. (40.06 ticks)

        Nodes                                         Cuts/
   Node  Left     Objective  IInf  Best Integer    Best Bound    ItCnt     Gap

*     0+    0                      -1.30900e+13  -1.30900e+13             0.00%
      0     0  -1.30900e+13    95  -1.30900e+13  -1.30900e+13     4128    0.00%
      0     0  -1.30900e+13   140  -1.30900e+13      Cuts: 82     4223    0.00%
      0     0  -1.30900e+13   170  -1.30900e+13      Cuts: 58     4392    0.00%
      0     2  -1.30900e+13   159  -1.30900e+13  -1.30900e+13     4392    0.00%
Elapsed time = 1.75 sec. (1131.45 ticks, tree = 0.02 MB, solutions = 7)

GUB cover cuts applied:  2
Clique cuts applied:  17
Cover cuts applied:  171
Flow cuts applied:  1
Mixed integer rounding cuts applied:  26
Zero-half cuts applied:  15
Lift and project cuts applied:  15
Gomory fractional cuts applied:  11

Root node processing (before b&c):
  Real time             =    1.49 sec. (1131.07 ticks)
Parallel b&c, 40 threads:
  Real time             =    0.96 sec. (188.66 ticks)
  Sync time (average)   =    0.61 sec.
  Wait time (average)   =    0.00 sec.
                          ------------
Total (root+branch&cut) =    2.45 sec. (1319.73 ticks)

Solution pool: 7 solutions saved.

MIP - Integer optimal solution:  Objective = -1.3089999989e+13
Solution time =    2.49 sec.  Iterations = 44575  Nodes = 1028
Deterministic time = 1319.76 ticks  (529.41 ticks/sec)

CPLEX> Solution 'p8' written to file 'ee.sol'.
CPLEX> 